
******************************************************************************
This program contains Ipopt, a library for large-scale nonlinear optimization.
 Ipopt is released as open source code under the Eclipse Public License (EPL).
         For more information visit http://projects.coin-or.org/Ipopt

This version of Ipopt was compiled from source code available at
    https://github.com/IDAES/Ipopt as part of the Institute for the Design of
    Advanced Energy Systems Process Systems Engineering Framework (IDAES PSE
    Framework) Copyright (c) 2018-2019. See https://github.com/IDAES/idaes-pse.

This version of Ipopt was compiled using HSL, a collection of Fortran codes
    for large-scale scientific computation.  All technical papers, sales and
    publicity material resulting from use of the HSL codes within IPOPT must
    contain the following acknowledgement:
        HSL, a collection of Fortran codes for large-scale scientific
        computation. See http://www.hsl.rl.ac.uk.
******************************************************************************

This is Ipopt version 3.13.2, running with linear solver ma27.

Number of nonzeros in equality constraint Jacobian...:      808
Number of nonzeros in inequality constraint Jacobian.:        0
Number of nonzeros in Lagrangian Hessian.............:      702

Total number of variables............................:      351
                     variables with only lower bounds:      108
                variables with lower and upper bounds:      189
                     variables with only upper bounds:        0
Total number of equality constraints.................:      350
Total number of inequality constraints...............:        0
        inequality constraints with only lower bounds:        0
   inequality constraints with lower and upper bounds:        0
        inequality constraints with only upper bounds:        0

iter    objective    inf_pr   inf_du lg(mu)  ||d||  lg(rg) alpha_du alpha_pr  ls
   0  0.0000000e+00 4.79e-01 1.78e-15  -1.0 0.00e+00    -  0.00e+00 0.00e+00   0
   1  5.2737913e-01 4.07e-01 2.75e+03  -1.0 2.86e+05    -  6.77e-01 1.57e-01h  1
   2  5.8466090e-01 4.03e-01 2.84e+03  -1.0 3.05e+05    -  7.06e-01 9.58e-03h  1
   3  2.9797686e+01 6.65e-02 1.60e+04  -1.0 3.17e+05    -  7.12e-01 9.90e-01h  1
   4  4.0589166e+01 2.80e-03 5.38e+02  -1.0 6.23e+04    -  9.36e-01 9.90e-01h  1
   5  4.1018856e+01 3.20e-05 2.96e+01  -1.0 2.39e+03    -  9.90e-01 9.90e-01h  1
   6  4.1019753e+01 3.15e-05 1.17e+07  -1.0 5.57e+02    -  9.90e-01 1.55e-02f  7
   7  4.1023300e+01 3.05e-05 2.30e+07  -1.0 1.15e+03    -  9.90e-01 3.09e-02f  6
   8  4.1135137e+01 4.51e-05 3.55e+05  -1.0 1.14e+03    -  1.00e+00 9.90e-01H  1
   9  4.1134980e+01 4.48e-07 1.26e+07  -1.0 2.12e+00    -  1.00e+00 9.90e-01h  1
iter    objective    inf_pr   inf_du lg(mu)  ||d||  lg(rg) alpha_du alpha_pr  ls
  10  4.1134980e+01 4.48e-09 1.25e+09  -1.0 6.73e-03    -  1.00e+00 9.90e-01h  1
  11  4.1134980e+01 4.48e-11 1.25e+11  -1.0 6.76e-05    -  1.00e+00 9.90e-01h  1
In iteration 11, 27 Slacks too small, adjusting variable bounds
  12  4.1134980e+01 4.30e-12 1.25e+13  -1.0 7.01e-07    -  1.00e+00 9.90e-01h  1
  13  4.1134980e+01 1.29e-12 9.96e-02  -1.0 7.05e-07    -  1.00e+00 1.00e+00H  1
  14  4.1134977e+01 2.78e-12 1.28e+13  -9.0 1.32e+03    -  9.98e-01 2.70e-05f 16
  15  4.1134976e+01 1.48e-12 1.28e+13  -9.0 1.17e+03    -  9.99e-01 7.62e-06f 18
  16  4.1134972e+01 1.31e-12 1.28e+13  -9.0 1.17e+03    -  1.00e+00 3.05e-05f 16
  17  4.1134969e+01 1.99e-12 1.28e+13  -9.0 1.17e+03    -  1.00e+00 3.05e-05f 16
  18  4.1134968e+01 2.21e-12 1.28e+13  -9.0 1.17e+03    -  1.00e+00 7.63e-06f 18
  19  4.1023281e+01 6.74e-04 3.86e+05  -9.0 1.17e+03    -  1.00e+00 1.00e+00f  1
iter    objective    inf_pr   inf_du lg(mu)  ||d||  lg(rg) alpha_du alpha_pr  ls
  20  4.1022267e+01 2.49e-09 1.75e-04  -9.0 1.02e+01    -  1.00e+00 1.00e+00h  1
  21  4.1022267e+01 6.93e-12 1.46e-11  -9.0 7.00e-05    -  1.00e+00 1.00e+00h  1

Number of Iterations....: 21

                                   (scaled)                 (unscaled)
Objective...............:   4.1022267327077174e+01    4.1022267327077174e+01
Dual infeasibility......:   1.4551915228366852e-11    1.4551915228366852e-11
Constraint violation....:   6.9322325657594774e-12    6.9322325657594774e-12
Complementarity.........:   9.0909100415091072e-10    9.0909100415091072e-10
Overall NLP error.......:   1.4200554088119659e-11    9.0909100415091072e-10


Number of objective function evaluations             = 136
Number of objective gradient evaluations             = 22
Number of equality constraint evaluations            = 136
Number of inequality constraint evaluations          = 0
Number of equality constraint Jacobian evaluations   = 22
Number of inequality constraint Jacobian evaluations = 0
Number of Lagrangian Hessian evaluations             = 21
Total CPU secs in IPOPT (w/o function evaluations)   =      0.057
Total CPU secs in NLP function evaluations           =      1.159

EXIT: Optimal Solution Found.
